w = 47;
w_holy = [3,3,2,2,2,2,3,2,2,2,2,2,2,2,2,2,3,2,2,2,2,2,2,2,2,2,2,3,2,2,2,2,2,3,2,4,3,2,2,2,2,2,2,2,2,2,2];
p = 9;
p_done = [5,5,5,6,9,12,7,6,11];
p_vaca = [{1},{},{9,10,11},{1,9},{},{1,2},{1,2,14,15},{},{7,18}];
p_volu = [{},{},{1},{},{},{},{},{},{}];
wrest = 3;
wsmin = 3;
